proyfinal/src/viki/013/experimentInOfficeAgust.take6.output/e5c5c173-0112-4827-98ee-5794955a5b6a.als.dat
{'cnf.clauses': '118081',
 'cnf.totvars': '69608',
 'conflict literals': '4',
 'conflicts': '4',
 'decisions': '476',
 'memused.mb': '14.24',
 'outcome': 'UNSAT',
 'propagations': '20067',
 'restarts': '1',
 'solver.msecs': 31,
 'task.msecs': 119}
