proyfinal/src/viki/013/experimentInOfficeAgust.take6.output/e5c5c173-0112-4827-98ee-5794955a5b6a.als.out
Reading from standard input... Use '--help' for help.
============================[ Problem Statistics ]=============================
|                                                                             |
|  Number of variables:         69608                                         |
|  Number of clauses:          118081                                         |
|  Parse time:                   0.02 s                                       |
|                                                                             |
============================[ Search Statistics ]==============================
| Conflicts |          ORIGINAL         |          LEARNT          | Progress |
|           |    Vars  Clauses Literals |    Limit  Clauses Lit/Cl |          |
===============================================================================
===============================================================================
restarts              : 1
conflicts             : 4              (128 /sec)
decisions             : 476            (0.00 % random) (15231 /sec)
propagations          : 20067          (642082 /sec)
conflict literals     : 4              (0.00 % deleted)
Memory used           : 14.24 MB
CPU time              : 0.031253 s

UNSATISFIABLE
